(set-info :smt-lib-version 2.6)
(set-logic ALL)
(set-info :source |
Generated on: 2026-06-22
Generator: ppTransSmt github.com/CLEARSY/pptranspog
Application: Discharging a proof obligation generated by aTelierB from an anonymized B machine
Target solver: CVC5 (--mbqi --enum-inst)
Time limit: 1200.0
|)
(set-info :license "www.gnu.org/licenses/gpl-3.0.en.html")
(set-info :category "industrial")
(set-info :status unknown)

(set-option :print-success false)
; Prelude
(declare-sort P 1)
(declare-fun mem0 (Int (P Int)) Bool)
(declare-sort C 2)
(define-fun MinInt () Int (- 2147483648))
(define-fun MaxInt () Int 2147483647)
; Global declarations
(declare-fun g_s0_0 () (P Int))
(declare-fun g_s1_1 () (P Int))
(declare-fun g_s2_2 () (P Int))
(declare-fun mem2 ( Int Int (P (C Int Int))) Bool)
; Defines
(define-fun |def_lprp_0| () Bool (forall ( (x_3 Int) ) (=> (mem0 x_3 g_s0_0) (and (<= 0 x_3) (<= x_3 MaxInt)))))
(define-fun |def_lprp_1| () Bool (not (forall ( (x_4 Int) ) (= (mem0 x_4 g_s0_0) false))))
(define-fun |def_lprp_2| () Bool (forall ( (x_5 Int) ) (= (mem0 x_5 g_s0_0) (forall ((x_6 Int)(x_7 Int) ) (=> (and (and  (mem0 x_6 g_s0_0) (forall ( (x_8 Int) ) (=> (mem0 x_8 g_s0_0) (<= x_6 x_8)))) (and  (mem0 x_7 g_s0_0) (forall ( (x_9 Int) ) (=> (mem0 x_9 g_s0_0) (>= x_7 x_9))))) (and (>= x_5 x_6) (<= x_5 x_7)))))))
(define-fun |def_lprp_3| () Bool (not (forall ((x_10 Int) ) (=> (= x_10 MaxInt) (mem0 x_10 g_s0_0)))))
(define-fun |def_lprp_4| () Bool (forall ( (x_11 Int) ) (=> (mem0 x_11 g_s1_1) (and (<= 0 x_11) (<= x_11 MaxInt)))))
(define-fun |def_lprp_5| () Bool (not (forall ( (x_12 Int) ) (= (mem0 x_12 g_s1_1) false))))
(define-fun |def_lprp_6| () Bool (forall ( (x_13 Int) ) (= (mem0 x_13 g_s1_1) (forall ((x_14 Int)(x_15 Int) ) (=> (and (and  (mem0 x_14 g_s1_1) (forall ( (x_16 Int) ) (=> (mem0 x_16 g_s1_1) (<= x_14 x_16)))) (and  (mem0 x_15 g_s1_1) (forall ( (x_17 Int) ) (=> (mem0 x_17 g_s1_1) (>= x_15 x_17))))) (and (>= x_13 x_14) (<= x_13 x_15)))))))
(define-fun |def_lprp_7| () Bool (not (forall ((x_18 Int) ) (=> (= x_18 MaxInt) (mem0 x_18 g_s1_1)))))
(define-fun |def_lprp_8| () Bool (forall ( (x_19 Int) ) (=> (mem0 x_19 g_s2_2) (and (<= 0 x_19) (<= x_19 MaxInt)))))
(define-fun |def_lprp_9| () Bool (not (forall ( (x_20 Int) ) (= (mem0 x_20 g_s2_2) false))))
(define-fun |def_lprp_10| () Bool (forall ( (x_21 Int) ) (= (mem0 x_21 g_s2_2) (forall ((x_22 Int)(x_23 Int) ) (=> (and (and  (mem0 x_22 g_s2_2) (forall ( (x_24 Int) ) (=> (mem0 x_24 g_s2_2) (<= x_22 x_24)))) (and  (mem0 x_23 g_s2_2) (forall ( (x_25 Int) ) (=> (mem0 x_25 g_s2_2) (>= x_23 x_25))))) (and (>= x_21 x_22) (<= x_21 x_23)))))))
(define-fun |def_lprp_11| () Bool (not (forall ((x_26 Int) ) (=> (= x_26 MaxInt) (mem0 x_26 g_s2_2)))))
(define-fun |def_ass_0| () Bool (forall ( (x_27 Int) ) (=> (and (<= 0 x_27) (<= x_27 MaxInt)) (<= 0 x_27))))
(define-fun |def_ass_1| () Bool (forall ( (x_28 Int) ) (=> (mem0 x_28 g_s0_0) (<= 0 x_28))))
(define-fun |def_ass_2| () Bool (forall ( (x_29 Int) ) (=> (mem0 x_29 g_s1_1) (<= 0 x_29))))
(define-fun |def_ass_3| () Bool (forall ( (x_30 Int) ) (=> (mem0 x_30 g_s2_2) (<= 0 x_30))))
; PO group s5
(define-fun lh_1 () Bool (forall ( (x_31 Int) ) (=> (mem0 x_31 g_s0_0) (and (<= 0 x_31) (<= x_31 MaxInt)))))
(define-fun lh_2 () Bool (not (forall ( (x_32 Int) ) (= (mem0 x_32 g_s0_0) false))))
(define-fun lh_3 () Bool (forall ( (x_33 Int) ) (= (mem0 x_33 g_s0_0) (forall ((x_34 Int)(x_35 Int) ) (=> (and (and  (mem0 x_34 g_s0_0) (forall ( (x_36 Int) ) (=> (mem0 x_36 g_s0_0) (<= x_34 x_36)))) (and  (mem0 x_35 g_s0_0) (forall ( (x_37 Int) ) (=> (mem0 x_37 g_s0_0) (>= x_35 x_37))))) (and (>= x_33 x_34) (<= x_33 x_35)))))))
(define-fun lh_4 () Bool (not (forall ((x_38 Int) ) (=> (= x_38 MaxInt) (mem0 x_38 g_s0_0)))))
(define-fun lh_5 () Bool (forall ( (x_39 Int) ) (=> (mem0 x_39 g_s1_1) (and (<= 0 x_39) (<= x_39 MaxInt)))))
(define-fun lh_6 () Bool (not (forall ( (x_40 Int) ) (= (mem0 x_40 g_s1_1) false))))
(define-fun lh_7 () Bool (forall ( (x_41 Int) ) (= (mem0 x_41 g_s1_1) (forall ((x_42 Int)(x_43 Int) ) (=> (and (and  (mem0 x_42 g_s1_1) (forall ( (x_44 Int) ) (=> (mem0 x_44 g_s1_1) (<= x_42 x_44)))) (and  (mem0 x_43 g_s1_1) (forall ( (x_45 Int) ) (=> (mem0 x_45 g_s1_1) (>= x_43 x_45))))) (and (>= x_41 x_42) (<= x_41 x_43)))))))
(define-fun lh_8 () Bool (not (forall ((x_46 Int) ) (=> (= x_46 MaxInt) (mem0 x_46 g_s1_1)))))
(define-fun lh_9 () Bool (forall ( (x_47 Int) ) (=> (mem0 x_47 g_s2_2) (and (<= 0 x_47) (<= x_47 MaxInt)))))
(define-fun lh_10 () Bool (not (forall ( (x_48 Int) ) (= (mem0 x_48 g_s2_2) false))))
; PO 0 in group s5
(assert (! (not (=> (and lh_1 lh_2) (and  (forall ( (x_51 Int) ) (=> (and (mem0 x_51 g_s0_0) (and true (not (<= 0 x_51)))) true)) (exists ( (x_49 Int) (x_50 (P (C Int Int))) ) (and (and (exists ( (x_52 (P (C Int Int))) ) (and (forall ( (x_53 Int) (x_54 Int) ) (= (mem2 x_54 x_53 x_52) (mem2 x_54 x_53 x_50))) (forall ( (x_55 Int) (x_56 Int) (x_57 Int) ) (=> (and  (mem2 x_55 x_56 x_52) (mem2 x_55 x_57 x_52)) (= x_56 x_57))) (forall ( (x_58 Int) ) (= (and (>= x_58 1) (<= x_58 x_49)) (exists ( (x_59 Int) ) (mem2 x_58 x_59 x_52)))) (forall ( (x_60 Int) ) (=> (exists ( (x_61 Int) ) (mem2 x_61 x_60 x_52)) (and (mem0 x_60 g_s0_0) (and true (not (<= 0 x_60)))))))) (forall ( (x_62 Int) ) (=> (and (mem0 x_62 g_s0_0) (and true (not (<= 0 x_62)))) (exists ( (x_63 Int) ) (mem2 x_63 x_62 x_50))))) (forall ( (x_64 Int) (x_65 Int) (x_66 Int) ) (=> (and  (mem2 x_65 x_64 x_50) (mem2 x_66 x_64 x_50)) (= x_65 x_66)))))))) :named goal))
(check-sat)
(exit)
